
<<< setup

Version identifier: 22.1.1.0 | 2022-11-27 | 9160aff4d
Tried aggregator 1 time.
LP Presolve eliminated 107 rows and 77 columns.
Reduced LP has 2 rows, 16 columns, and 16 nonzeros.
Presolve time = 0.00 sec. (0.04 ticks)

Iteration log . . .
Iteration:     1   Dual objective     =          1517.014909
main returns 0

<<< main


<<< done

